<number of tasks>
8

<cycle time>
20

<task times>
1 11
2 17
3 9
4 5
5 8
6 12
7 10
8 3

<precedence relations>
1,2
2,3
2,4
3,5
3,6
4,6
5,7
6,8

<setup times forward>
2,3:1
2,4:1
3,5:1
3,6:1
4,5:1
4,6:1
4,7:1
5,4:1
7,4:1

<setup times backward>
5,3:1
5,4:1
6,3:1
6,4:1
7,3:1
7,4:1
8,3:1
8,4:1

<end>

<optimal SALBP-1 value>
5


<rand seed>
467321153

